50
500 500 500 
277 242 237 
233 177 159 
182 216 155 
147 134 278 
213 127 263 
315 212 296 
261 175 222 
210 281 159 
243 256 332 
159 314 200 
217 147 226 
260 349 187 
222 199 155 
296 127 210 
263 302 147 
226 250 237 
264 344 155 
237 179 284 
245 137 155 
137 328 155 
321 154 237 
200 174 165 
270 128 315 
299 179 278 
165 370 260 
198 182 147 
155 295 296 
278 219 213 
184 155 260 
187 270 217 
208 293 332 
261 204 245 
344 168 263 
213 135 362 
362 162 243 
362 374 210 
237 322 332 
281 308 260 
155 344 213 
210 163 360 
325 225 254 
360 225 210 
346 347 182 
131 144 313 
284 284 344 
262 228 147 
146 178 315 
254 164 284 
332 238 187
313 304 261 
gcut8_3d
